10	5
0	5	8	1	3	2	4
1	2	9	7
2	4	7	6	10	9
3	2	9	5
4	2	7	11
5	2	6	11
6	1	11
7	1	11
8	1	11
9	1	11
10	1	11
11	0
0	0	0	0	0	0	0
1	8	0	0	0	2	5
2	4	3	0	5	0	5
3	7	5	3	0	0	4
4	8	4	3	2	2	4
5	10	2	5	5	4	3
6	7	0	1	3	4	2
7	4	3	2	1	5	1
8	10	2	0	1	2	0
9	8	3	2	1	1	5
10	1	5	2	2	0	0
11	0	0	0	0	0	0
5	5	5	5	5
